NAME: random-85-20396
TYPE: TSP
COMMENT: size=85 seed=20396
DIMENSION: 172
EDGE_WEIGHT_TYPE: EUC_2D
NODE_COORD_SECTION
+0 572 350
-0 572 350
+1 978 857
-1 951 326
+2 970 3
-2 53 22
+3 476 497
-3 622 647
+4 356 105
-4 100 491
+5 783 395
-5 0 53
+6 834 159
-6 79 49
+7 988 913
-7 210 481
+8 8 436
-8 349 650
+9 443 735
-9 473 319
+10 346 232
-10 495 901
+11 724 166
-11 634 568
+12 210 425
-12 845 867
+13 65 742
-13 959 828
+14 923 340
-14 912 543
+15 115 106
-15 494 122
+16 615 263
-16 976 618
+17 778 380
-17 844 878
+18 263 362
-18 352 960
+19 724 669
-19 743 201
+20 592 492
-20 103 869
+21 656 740
-21 228 619
+22 148 427
-22 316 899
+23 107 476
-23 560 798
+24 148 991
-24 124 640
+25 570 891
-25 437 749
+26 907 395
-26 937 134
+27 124 935
-27 369 962
+28 803 251
-28 92 430
+29 306 671
-29 9 132
+30 775 372
-30 757 665
+31 864 709
-31 285 109
+32 593 980
-32 155 87
+33 770 680
-33 489 640
+34 996 129
-34 244 634
+35 995 634
-35 327 985
+36 351 801
-36 316 797
+37 786 315
-37 704 314
+38 830 446
-38 167 710
+39 596 506
-39 714 683
+40 770 477
-40 768 105
+41 282 894
-41 514 512
+42 308 368
-42 771 263
+43 35 972
-43 721 843
+44 633 479
-44 177 970
+45 644 357
-45 859 150
+46 182 130
-46 996 374
+47 361 294
-47 707 935
+48 545 262
-48 348 195
+49 244 821
-49 764 652
+50 980 486
-50 877 314
+51 818 440
-51 669 744
+52 401 944
-52 974 546
+53 875 859
-53 489 944
+54 811 22
-54 540 817
+55 723 299
-55 517 433
+56 882 960
-56 905 659
+57 886 531
-57 292 416
+58 406 831
-58 285 631
+59 607 181
-59 395 612
+60 867 884
-60 435 932
+61 139 634
-61 777 364
+62 831 639
-62 460 649
+63 837 214
-63 473 411
+64 148 116
-64 934 371
+65 951 306
-65 148 731
+66 330 828
-66 817 275
+67 361 110
-67 792 978
+68 903 346
-68 645 341
+69 540 195
-69 248 562
+70 964 342
-70 320 674
+71 465 683
-71 607 100
+72 762 75
-72 699 685
+73 585 753
-73 704 788
+74 783 97
-74 615 826
+75 588 372
-75 695 343
+76 703 777
-76 910 713
+77 705 43
-77 589 358
+78 413 272
-78 707 650
+79 73 397
-79 682 529
+80 535 873
-80 84 121
+81 400 92
-81 629 247
+82 74 659
-82 731 211
+83 587 626
-83 986 430
+84 272 548
-84 313 846
+85 533 656
-85 326 796
PRECEDENCE_SECTION
+0 -0
+1 -1
+2 -2
+3 -3
+4 -4
+5 -5
+6 -6
+7 -7
+8 -8
+9 -9
+10 -10
+11 -11
+12 -12
+13 -13
+14 -14
+15 -15
+16 -16
+17 -17
+18 -18
+19 -19
+20 -20
+21 -21
+22 -22
+23 -23
+24 -24
+25 -25
+26 -26
+27 -27
+28 -28
+29 -29
+30 -30
+31 -31
+32 -32
+33 -33
+34 -34
+35 -35
+36 -36
+37 -37
+38 -38
+39 -39
+40 -40
+41 -41
+42 -42
+43 -43
+44 -44
+45 -45
+46 -46
+47 -47
+48 -48
+49 -49
+50 -50
+51 -51
+52 -52
+53 -53
+54 -54
+55 -55
+56 -56
+57 -57
+58 -58
+59 -59
+60 -60
+61 -61
+62 -62
+63 -63
+64 -64
+65 -65
+66 -66
+67 -67
+68 -68
+69 -69
+70 -70
+71 -71
+72 -72
+73 -73
+74 -74
+75 -75
+76 -76
+77 -77
+78 -78
+79 -79
+80 -80
+81 -81
+82 -82
+83 -83
+84 -84
+85 -85
EOF
